(set-option :produce-models true)
(set-logic QF_LRA)
(set-info :notes | Strip-packing problem.|)
(declare-fun x0 () Real)
(declare-fun y0 () Real)
(declare-fun x1 () Real)
(declare-fun y1 () Real)
(declare-fun x2 () Real)
(declare-fun y2 () Real)
(declare-fun x3 () Real)
(declare-fun y3 () Real)
(declare-fun x4 () Real)
(declare-fun y4 () Real)
(declare-fun x5 () Real)
(declare-fun y5 () Real)
(declare-fun x6 () Real)
(declare-fun y6 () Real)
(declare-fun x7 () Real)
(declare-fun y7 () Real)
(declare-fun x8 () Real)
(declare-fun y8 () Real)
(declare-fun x9 () Real)
(declare-fun y9 () Real)
(declare-fun x10 () Real)
(declare-fun y10 () Real)
(declare-fun x11 () Real)
(declare-fun y11 () Real)
(declare-fun x12 () Real)
(declare-fun y12 () Real)
(declare-fun x13 () Real)
(declare-fun y13 () Real)
(declare-fun x14 () Real)
(declare-fun y14 () Real)
(declare-fun z () Real)
(declare-fun c () Real)
(assert (and (= c z) (and (>= x0 0) 
(and (>= y0 0) 
(and (>= x1 0) 
(and (>= y1 0) 
(and (>= x2 0) 
(and (>= y2 0) 
(and (>= x3 0) 
(and (>= y3 0) 
(and (>= x4 0) 
(and (>= y4 0) 
(and (>= x5 0) 
(and (>= y5 0) 
(and (>= x6 0) 
(and (>= y6 0) 
(and (>= x7 0) 
(and (>= y7 0) 
(and (>= x8 0) 
(and (>= y8 0) 
(and (>= x9 0) 
(and (>= y9 0) 
(and (>= x10 0) 
(and (>= y10 0) 
(and (>= x11 0) 
(and (>= y11 0) 
(and (>= x12 0) 
(and (>= y12 0) 
(and (>= x13 0) 
(and (>= y13 0) 
(and (>= x14 0) 
(and (>= y14 0) 
(and (>= z 0) 
(and (>= c 0) 
(and (<= (+ x0 0.4421015175) z) 
(and (<= 0.9584080948 y0) 
(and (<= y0 1.0) 
(and (<= x0 (- 5.7746377704 0.4421015175)) 
(and (>= x0 0) 
(and (<= (+ x1 0.4551962008) z) 
(and (<= 0.9346467869 y1) 
(and (<= y1 1.0) 
(and (<= x1 (- 5.7746377704 0.4551962008)) 
(and (>= x1 0) 
(and (<= (+ x2 0.631879635) z) 
(and (<= 0.9291604635 y2) 
(and (<= y2 1.0) 
(and (<= x2 (- 5.7746377704 0.631879635)) 
(and (>= x2 0) 
(and (<= (+ x3 0.2517075454) z) 
(and (<= 0.8906876898 y3) 
(and (<= y3 1.0) 
(and (<= x3 (- 5.7746377704 0.2517075454)) 
(and (>= x3 0) 
(and (<= (+ x4 0.5878929009) z) 
(and (<= 0.8122387515 y4) 
(and (<= y4 1.0) 
(and (<= x4 (- 5.7746377704 0.5878929009)) 
(and (>= x4 0) 
(and (<= (+ x5 0.1371595628) z) 
(and (<= 0.7655456918 y5) 
(and (<= y5 1.0) 
(and (<= x5 (- 5.7746377704 0.1371595628)) 
(and (>= x5 0) 
(and (<= (+ x6 0.1780237085) z) 
(and (<= 0.7577324443 y6) 
(and (<= y6 1.0) 
(and (<= x6 (- 5.7746377704 0.1780237085)) 
(and (>= x6 0) 
(and (<= (+ x7 0.694441794) z) 
(and (<= 0.7476879152 y7) 
(and (<= y7 1.0) 
(and (<= x7 (- 5.7746377704 0.694441794)) 
(and (>= x7 0) 
(and (<= (+ x8 0.9356879999) z) 
(and (<= 0.468120625 y8) 
(and (<= y8 1.0) 
(and (<= x8 (- 5.7746377704 0.9356879999)) 
(and (>= x8 0) 
(and (<= (+ x9 0.2037047815) z) 
(and (<= 0.4256521909 y9) 
(and (<= y9 1.0) 
(and (<= x9 (- 5.7746377704 0.2037047815)) 
(and (>= x9 0) 
(and (<= (+ x10 0.0929660365) z) 
(and (<= 0.3789429212 y10) 
(and (<= y10 1.0) 
(and (<= x10 (- 5.7746377704 0.0929660365)) 
(and (>= x10 0) 
(and (<= (+ x11 0.562118117) z) 
(and (<= 0.3273229665 y11) 
(and (<= y11 1.0) 
(and (<= x11 (- 5.7746377704 0.562118117)) 
(and (>= x11 0) 
(and (<= (+ x12 0.8054627521) z) 
(and (<= 0.1939226985 y12) 
(and (<= y12 1.0) 
(and (<= x12 (- 5.7746377704 0.8054627521)) 
(and (>= x12 0) 
(and (<= (+ x13 0.1117653568) z) 
(and (<= 0.1849369237 y13) 
(and (<= y13 1.0) 
(and (<= x13 (- 5.7746377704 0.1117653568)) 
(and (>= x13 0) 
(and (<= (+ x14 0.6279401487) z) 
(and (<= 0.1579730077 y14) 
(and (<= y14 1.0) 
(and (<= x14 (- 5.7746377704 0.6279401487)) 
(and (>= x14 0) 
(and (<= c 5.7746377704) 
(and (or (<= (+ x0 0.4421015175) x1) (or (<= (+ x1 0.4551962008) x0) (or (>= (- y0 0.9584080948) y1) (or (>= (- y1 0.9346467869) y0))))) 
(and (or (<= (+ x0 0.4421015175) x2) (or (<= (+ x2 0.631879635) x0) (or (>= (- y0 0.9584080948) y2) (or (>= (- y2 0.9291604635) y0))))) 
(and (or (<= (+ x0 0.4421015175) x3) (or (<= (+ x3 0.2517075454) x0) (or (>= (- y0 0.9584080948) y3) (or (>= (- y3 0.8906876898) y0))))) 
(and (or (<= (+ x0 0.4421015175) x4) (or (<= (+ x4 0.5878929009) x0) (or (>= (- y0 0.9584080948) y4) (or (>= (- y4 0.8122387515) y0))))) 
(and (or (<= (+ x0 0.4421015175) x5) (or (<= (+ x5 0.1371595628) x0) (or (>= (- y0 0.9584080948) y5) (or (>= (- y5 0.7655456918) y0))))) 
(and (or (<= (+ x0 0.4421015175) x6) (or (<= (+ x6 0.1780237085) x0) (or (>= (- y0 0.9584080948) y6) (or (>= (- y6 0.7577324443) y0))))) 
(and (or (<= (+ x0 0.4421015175) x7) (or (<= (+ x7 0.694441794) x0) (or (>= (- y0 0.9584080948) y7) (or (>= (- y7 0.7476879152) y0))))) 
(and (or (<= (+ x0 0.4421015175) x8) (or (<= (+ x8 0.9356879999) x0) (or (>= (- y0 0.9584080948) y8) (or (>= (- y8 0.468120625) y0))))) 
(and (or (<= (+ x0 0.4421015175) x9) (or (<= (+ x9 0.2037047815) x0) (or (>= (- y0 0.9584080948) y9) (or (>= (- y9 0.4256521909) y0))))) 
(and (or (<= (+ x0 0.4421015175) x10) (or (<= (+ x10 0.0929660365) x0) (or (>= (- y0 0.9584080948) y10) (or (>= (- y10 0.3789429212) y0))))) 
(and (or (<= (+ x0 0.4421015175) x11) (or (<= (+ x11 0.562118117) x0) (or (>= (- y0 0.9584080948) y11) (or (>= (- y11 0.3273229665) y0))))) 
(and (or (<= (+ x0 0.4421015175) x12) (or (<= (+ x12 0.8054627521) x0) (or (>= (- y0 0.9584080948) y12) (or (>= (- y12 0.1939226985) y0))))) 
(and (or (<= (+ x0 0.4421015175) x13) (or (<= (+ x13 0.1117653568) x0) (or (>= (- y0 0.9584080948) y13) (or (>= (- y13 0.1849369237) y0))))) 
(and (or (<= (+ x0 0.4421015175) x14) (or (<= (+ x14 0.6279401487) x0) (or (>= (- y0 0.9584080948) y14) (or (>= (- y14 0.1579730077) y0))))) 
(and (or (<= (+ x1 0.4551962008) x2) (or (<= (+ x2 0.631879635) x1) (or (>= (- y1 0.9346467869) y2) (or (>= (- y2 0.9291604635) y1))))) 
(and (or (<= (+ x1 0.4551962008) x3) (or (<= (+ x3 0.2517075454) x1) (or (>= (- y1 0.9346467869) y3) (or (>= (- y3 0.8906876898) y1))))) 
(and (or (<= (+ x1 0.4551962008) x4) (or (<= (+ x4 0.5878929009) x1) (or (>= (- y1 0.9346467869) y4) (or (>= (- y4 0.8122387515) y1))))) 
(and (or (<= (+ x1 0.4551962008) x5) (or (<= (+ x5 0.1371595628) x1) (or (>= (- y1 0.9346467869) y5) (or (>= (- y5 0.7655456918) y1))))) 
(and (or (<= (+ x1 0.4551962008) x6) (or (<= (+ x6 0.1780237085) x1) (or (>= (- y1 0.9346467869) y6) (or (>= (- y6 0.7577324443) y1))))) 
(and (or (<= (+ x1 0.4551962008) x7) (or (<= (+ x7 0.694441794) x1) (or (>= (- y1 0.9346467869) y7) (or (>= (- y7 0.7476879152) y1))))) 
(and (or (<= (+ x1 0.4551962008) x8) (or (<= (+ x8 0.9356879999) x1) (or (>= (- y1 0.9346467869) y8) (or (>= (- y8 0.468120625) y1))))) 
(and (or (<= (+ x1 0.4551962008) x9) (or (<= (+ x9 0.2037047815) x1) (or (>= (- y1 0.9346467869) y9) (or (>= (- y9 0.4256521909) y1))))) 
(and (or (<= (+ x1 0.4551962008) x10) (or (<= (+ x10 0.0929660365) x1) (or (>= (- y1 0.9346467869) y10) (or (>= (- y10 0.3789429212) y1))))) 
(and (or (<= (+ x1 0.4551962008) x11) (or (<= (+ x11 0.562118117) x1) (or (>= (- y1 0.9346467869) y11) (or (>= (- y11 0.3273229665) y1))))) 
(and (or (<= (+ x1 0.4551962008) x12) (or (<= (+ x12 0.8054627521) x1) (or (>= (- y1 0.9346467869) y12) (or (>= (- y12 0.1939226985) y1))))) 
(and (or (<= (+ x1 0.4551962008) x13) (or (<= (+ x13 0.1117653568) x1) (or (>= (- y1 0.9346467869) y13) (or (>= (- y13 0.1849369237) y1))))) 
(and (or (<= (+ x1 0.4551962008) x14) (or (<= (+ x14 0.6279401487) x1) (or (>= (- y1 0.9346467869) y14) (or (>= (- y14 0.1579730077) y1))))) 
(and (or (<= (+ x2 0.631879635) x3) (or (<= (+ x3 0.2517075454) x2) (or (>= (- y2 0.9291604635) y3) (or (>= (- y3 0.8906876898) y2))))) 
(and (or (<= (+ x2 0.631879635) x4) (or (<= (+ x4 0.5878929009) x2) (or (>= (- y2 0.9291604635) y4) (or (>= (- y4 0.8122387515) y2))))) 
(and (or (<= (+ x2 0.631879635) x5) (or (<= (+ x5 0.1371595628) x2) (or (>= (- y2 0.9291604635) y5) (or (>= (- y5 0.7655456918) y2))))) 
(and (or (<= (+ x2 0.631879635) x6) (or (<= (+ x6 0.1780237085) x2) (or (>= (- y2 0.9291604635) y6) (or (>= (- y6 0.7577324443) y2))))) 
(and (or (<= (+ x2 0.631879635) x7) (or (<= (+ x7 0.694441794) x2) (or (>= (- y2 0.9291604635) y7) (or (>= (- y7 0.7476879152) y2))))) 
(and (or (<= (+ x2 0.631879635) x8) (or (<= (+ x8 0.9356879999) x2) (or (>= (- y2 0.9291604635) y8) (or (>= (- y8 0.468120625) y2))))) 
(and (or (<= (+ x2 0.631879635) x9) (or (<= (+ x9 0.2037047815) x2) (or (>= (- y2 0.9291604635) y9) (or (>= (- y9 0.4256521909) y2))))) 
(and (or (<= (+ x2 0.631879635) x10) (or (<= (+ x10 0.0929660365) x2) (or (>= (- y2 0.9291604635) y10) (or (>= (- y10 0.3789429212) y2))))) 
(and (or (<= (+ x2 0.631879635) x11) (or (<= (+ x11 0.562118117) x2) (or (>= (- y2 0.9291604635) y11) (or (>= (- y11 0.3273229665) y2))))) 
(and (or (<= (+ x2 0.631879635) x12) (or (<= (+ x12 0.8054627521) x2) (or (>= (- y2 0.9291604635) y12) (or (>= (- y12 0.1939226985) y2))))) 
(and (or (<= (+ x2 0.631879635) x13) (or (<= (+ x13 0.1117653568) x2) (or (>= (- y2 0.9291604635) y13) (or (>= (- y13 0.1849369237) y2))))) 
(and (or (<= (+ x2 0.631879635) x14) (or (<= (+ x14 0.6279401487) x2) (or (>= (- y2 0.9291604635) y14) (or (>= (- y14 0.1579730077) y2))))) 
(and (or (<= (+ x3 0.2517075454) x4) (or (<= (+ x4 0.5878929009) x3) (or (>= (- y3 0.8906876898) y4) (or (>= (- y4 0.8122387515) y3))))) 
(and (or (<= (+ x3 0.2517075454) x5) (or (<= (+ x5 0.1371595628) x3) (or (>= (- y3 0.8906876898) y5) (or (>= (- y5 0.7655456918) y3))))) 
(and (or (<= (+ x3 0.2517075454) x6) (or (<= (+ x6 0.1780237085) x3) (or (>= (- y3 0.8906876898) y6) (or (>= (- y6 0.7577324443) y3))))) 
(and (or (<= (+ x3 0.2517075454) x7) (or (<= (+ x7 0.694441794) x3) (or (>= (- y3 0.8906876898) y7) (or (>= (- y7 0.7476879152) y3))))) 
(and (or (<= (+ x3 0.2517075454) x8) (or (<= (+ x8 0.9356879999) x3) (or (>= (- y3 0.8906876898) y8) (or (>= (- y8 0.468120625) y3))))) 
(and (or (<= (+ x3 0.2517075454) x9) (or (<= (+ x9 0.2037047815) x3) (or (>= (- y3 0.8906876898) y9) (or (>= (- y9 0.4256521909) y3))))) 
(and (or (<= (+ x3 0.2517075454) x10) (or (<= (+ x10 0.0929660365) x3) (or (>= (- y3 0.8906876898) y10) (or (>= (- y10 0.3789429212) y3))))) 
(and (or (<= (+ x3 0.2517075454) x11) (or (<= (+ x11 0.562118117) x3) (or (>= (- y3 0.8906876898) y11) (or (>= (- y11 0.3273229665) y3))))) 
(and (or (<= (+ x3 0.2517075454) x12) (or (<= (+ x12 0.8054627521) x3) (or (>= (- y3 0.8906876898) y12) (or (>= (- y12 0.1939226985) y3))))) 
(and (or (<= (+ x3 0.2517075454) x13) (or (<= (+ x13 0.1117653568) x3) (or (>= (- y3 0.8906876898) y13) (or (>= (- y13 0.1849369237) y3))))) 
(and (or (<= (+ x3 0.2517075454) x14) (or (<= (+ x14 0.6279401487) x3) (or (>= (- y3 0.8906876898) y14) (or (>= (- y14 0.1579730077) y3))))) 
(and (or (<= (+ x4 0.5878929009) x5) (or (<= (+ x5 0.1371595628) x4) (or (>= (- y4 0.8122387515) y5) (or (>= (- y5 0.7655456918) y4))))) 
(and (or (<= (+ x4 0.5878929009) x6) (or (<= (+ x6 0.1780237085) x4) (or (>= (- y4 0.8122387515) y6) (or (>= (- y6 0.7577324443) y4))))) 
(and (or (<= (+ x4 0.5878929009) x7) (or (<= (+ x7 0.694441794) x4) (or (>= (- y4 0.8122387515) y7) (or (>= (- y7 0.7476879152) y4))))) 
(and (or (<= (+ x4 0.5878929009) x8) (or (<= (+ x8 0.9356879999) x4) (or (>= (- y4 0.8122387515) y8) (or (>= (- y8 0.468120625) y4))))) 
(and (or (<= (+ x4 0.5878929009) x9) (or (<= (+ x9 0.2037047815) x4) (or (>= (- y4 0.8122387515) y9) (or (>= (- y9 0.4256521909) y4))))) 
(and (or (<= (+ x4 0.5878929009) x10) (or (<= (+ x10 0.0929660365) x4) (or (>= (- y4 0.8122387515) y10) (or (>= (- y10 0.3789429212) y4))))) 
(and (or (<= (+ x4 0.5878929009) x11) (or (<= (+ x11 0.562118117) x4) (or (>= (- y4 0.8122387515) y11) (or (>= (- y11 0.3273229665) y4))))) 
(and (or (<= (+ x4 0.5878929009) x12) (or (<= (+ x12 0.8054627521) x4) (or (>= (- y4 0.8122387515) y12) (or (>= (- y12 0.1939226985) y4))))) 
(and (or (<= (+ x4 0.5878929009) x13) (or (<= (+ x13 0.1117653568) x4) (or (>= (- y4 0.8122387515) y13) (or (>= (- y13 0.1849369237) y4))))) 
(and (or (<= (+ x4 0.5878929009) x14) (or (<= (+ x14 0.6279401487) x4) (or (>= (- y4 0.8122387515) y14) (or (>= (- y14 0.1579730077) y4))))) 
(and (or (<= (+ x5 0.1371595628) x6) (or (<= (+ x6 0.1780237085) x5) (or (>= (- y5 0.7655456918) y6) (or (>= (- y6 0.7577324443) y5))))) 
(and (or (<= (+ x5 0.1371595628) x7) (or (<= (+ x7 0.694441794) x5) (or (>= (- y5 0.7655456918) y7) (or (>= (- y7 0.7476879152) y5))))) 
(and (or (<= (+ x5 0.1371595628) x8) (or (<= (+ x8 0.9356879999) x5) (or (>= (- y5 0.7655456918) y8) (or (>= (- y8 0.468120625) y5))))) 
(and (or (<= (+ x5 0.1371595628) x9) (or (<= (+ x9 0.2037047815) x5) (or (>= (- y5 0.7655456918) y9) (or (>= (- y9 0.4256521909) y5))))) 
(and (or (<= (+ x5 0.1371595628) x10) (or (<= (+ x10 0.0929660365) x5) (or (>= (- y5 0.7655456918) y10) (or (>= (- y10 0.3789429212) y5))))) 
(and (or (<= (+ x5 0.1371595628) x11) (or (<= (+ x11 0.562118117) x5) (or (>= (- y5 0.7655456918) y11) (or (>= (- y11 0.3273229665) y5))))) 
(and (or (<= (+ x5 0.1371595628) x12) (or (<= (+ x12 0.8054627521) x5) (or (>= (- y5 0.7655456918) y12) (or (>= (- y12 0.1939226985) y5))))) 
(and (or (<= (+ x5 0.1371595628) x13) (or (<= (+ x13 0.1117653568) x5) (or (>= (- y5 0.7655456918) y13) (or (>= (- y13 0.1849369237) y5))))) 
(and (or (<= (+ x5 0.1371595628) x14) (or (<= (+ x14 0.6279401487) x5) (or (>= (- y5 0.7655456918) y14) (or (>= (- y14 0.1579730077) y5))))) 
(and (or (<= (+ x6 0.1780237085) x7) (or (<= (+ x7 0.694441794) x6) (or (>= (- y6 0.7577324443) y7) (or (>= (- y7 0.7476879152) y6))))) 
(and (or (<= (+ x6 0.1780237085) x8) (or (<= (+ x8 0.9356879999) x6) (or (>= (- y6 0.7577324443) y8) (or (>= (- y8 0.468120625) y6))))) 
(and (or (<= (+ x6 0.1780237085) x9) (or (<= (+ x9 0.2037047815) x6) (or (>= (- y6 0.7577324443) y9) (or (>= (- y9 0.4256521909) y6))))) 
(and (or (<= (+ x6 0.1780237085) x10) (or (<= (+ x10 0.0929660365) x6) (or (>= (- y6 0.7577324443) y10) (or (>= (- y10 0.3789429212) y6))))) 
(and (or (<= (+ x6 0.1780237085) x11) (or (<= (+ x11 0.562118117) x6) (or (>= (- y6 0.7577324443) y11) (or (>= (- y11 0.3273229665) y6))))) 
(and (or (<= (+ x6 0.1780237085) x12) (or (<= (+ x12 0.8054627521) x6) (or (>= (- y6 0.7577324443) y12) (or (>= (- y12 0.1939226985) y6))))) 
(and (or (<= (+ x6 0.1780237085) x13) (or (<= (+ x13 0.1117653568) x6) (or (>= (- y6 0.7577324443) y13) (or (>= (- y13 0.1849369237) y6))))) 
(and (or (<= (+ x6 0.1780237085) x14) (or (<= (+ x14 0.6279401487) x6) (or (>= (- y6 0.7577324443) y14) (or (>= (- y14 0.1579730077) y6))))) 
(and (or (<= (+ x7 0.694441794) x8) (or (<= (+ x8 0.9356879999) x7) (or (>= (- y7 0.7476879152) y8) (or (>= (- y8 0.468120625) y7))))) 
(and (or (<= (+ x7 0.694441794) x9) (or (<= (+ x9 0.2037047815) x7) (or (>= (- y7 0.7476879152) y9) (or (>= (- y9 0.4256521909) y7))))) 
(and (or (<= (+ x7 0.694441794) x10) (or (<= (+ x10 0.0929660365) x7) (or (>= (- y7 0.7476879152) y10) (or (>= (- y10 0.3789429212) y7))))) 
(and (or (<= (+ x7 0.694441794) x11) (or (<= (+ x11 0.562118117) x7) (or (>= (- y7 0.7476879152) y11) (or (>= (- y11 0.3273229665) y7))))) 
(and (or (<= (+ x7 0.694441794) x12) (or (<= (+ x12 0.8054627521) x7) (or (>= (- y7 0.7476879152) y12) (or (>= (- y12 0.1939226985) y7))))) 
(and (or (<= (+ x7 0.694441794) x13) (or (<= (+ x13 0.1117653568) x7) (or (>= (- y7 0.7476879152) y13) (or (>= (- y13 0.1849369237) y7))))) 
(and (or (<= (+ x7 0.694441794) x14) (or (<= (+ x14 0.6279401487) x7) (or (>= (- y7 0.7476879152) y14) (or (>= (- y14 0.1579730077) y7))))) 
(and (or (<= (+ x8 0.9356879999) x9) (or (<= (+ x9 0.2037047815) x8) (or (>= (- y8 0.468120625) y9) (or (>= (- y9 0.4256521909) y8))))) 
(and (or (<= (+ x8 0.9356879999) x10) (or (<= (+ x10 0.0929660365) x8) (or (>= (- y8 0.468120625) y10) (or (>= (- y10 0.3789429212) y8))))) 
(and (or (<= (+ x8 0.9356879999) x11) (or (<= (+ x11 0.562118117) x8) (or (>= (- y8 0.468120625) y11) (or (>= (- y11 0.3273229665) y8))))) 
(and (or (<= (+ x8 0.9356879999) x12) (or (<= (+ x12 0.8054627521) x8) (or (>= (- y8 0.468120625) y12) (or (>= (- y12 0.1939226985) y8))))) 
(and (or (<= (+ x8 0.9356879999) x13) (or (<= (+ x13 0.1117653568) x8) (or (>= (- y8 0.468120625) y13) (or (>= (- y13 0.1849369237) y8))))) 
(and (or (<= (+ x8 0.9356879999) x14) (or (<= (+ x14 0.6279401487) x8) (or (>= (- y8 0.468120625) y14) (or (>= (- y14 0.1579730077) y8))))) 
(and (or (<= (+ x9 0.2037047815) x10) (or (<= (+ x10 0.0929660365) x9) (or (>= (- y9 0.4256521909) y10) (or (>= (- y10 0.3789429212) y9))))) 
(and (or (<= (+ x9 0.2037047815) x11) (or (<= (+ x11 0.562118117) x9) (or (>= (- y9 0.4256521909) y11) (or (>= (- y11 0.3273229665) y9))))) 
(and (or (<= (+ x9 0.2037047815) x12) (or (<= (+ x12 0.8054627521) x9) (or (>= (- y9 0.4256521909) y12) (or (>= (- y12 0.1939226985) y9))))) 
(and (or (<= (+ x9 0.2037047815) x13) (or (<= (+ x13 0.1117653568) x9) (or (>= (- y9 0.4256521909) y13) (or (>= (- y13 0.1849369237) y9))))) 
(and (or (<= (+ x9 0.2037047815) x14) (or (<= (+ x14 0.6279401487) x9) (or (>= (- y9 0.4256521909) y14) (or (>= (- y14 0.1579730077) y9))))) 
(and (or (<= (+ x10 0.0929660365) x11) (or (<= (+ x11 0.562118117) x10) (or (>= (- y10 0.3789429212) y11) (or (>= (- y11 0.3273229665) y10))))) 
(and (or (<= (+ x10 0.0929660365) x12) (or (<= (+ x12 0.8054627521) x10) (or (>= (- y10 0.3789429212) y12) (or (>= (- y12 0.1939226985) y10))))) 
(and (or (<= (+ x10 0.0929660365) x13) (or (<= (+ x13 0.1117653568) x10) (or (>= (- y10 0.3789429212) y13) (or (>= (- y13 0.1849369237) y10))))) 
(and (or (<= (+ x10 0.0929660365) x14) (or (<= (+ x14 0.6279401487) x10) (or (>= (- y10 0.3789429212) y14) (or (>= (- y14 0.1579730077) y10))))) 
(and (or (<= (+ x11 0.562118117) x12) (or (<= (+ x12 0.8054627521) x11) (or (>= (- y11 0.3273229665) y12) (or (>= (- y12 0.1939226985) y11))))) 
(and (or (<= (+ x11 0.562118117) x13) (or (<= (+ x13 0.1117653568) x11) (or (>= (- y11 0.3273229665) y13) (or (>= (- y13 0.1849369237) y11))))) 
(and (or (<= (+ x11 0.562118117) x14) (or (<= (+ x14 0.6279401487) x11) (or (>= (- y11 0.3273229665) y14) (or (>= (- y14 0.1579730077) y11))))) 
(and (or (<= (+ x12 0.8054627521) x13) (or (<= (+ x13 0.1117653568) x12) (or (>= (- y12 0.1939226985) y13) (or (>= (- y13 0.1849369237) y12))))) 
(and (or (<= (+ x12 0.8054627521) x14) (or (<= (+ x14 0.6279401487) x12) (or (>= (- y12 0.1939226985) y14) (or (>= (- y14 0.1579730077) y12))))) 
(and (or (<= (+ x13 0.1117653568) x14) (or (<= (+ x14 0.6279401487) x13) (or (>= (- y13 0.1849369237) y14) (or (>= (- y14 0.1579730077) y13))))) )))))))))))))))))))))))))))))))))))))))))))))))))))))))))))))))))))))))))))))))))))))))))))))))))))))))))))))))))))))))))))))))))))))))))))))))))))))))))))))))))))))))))))))))))))))))))))))))))))))))))))))))))))))))
(minimize c)
(check-sat)
(get-objectives)
(exit)
